9
0	4	2	43	27	24	9	46	6
4	0	10	8	8	24	8	25	16
2	10	0	45	18	34	18	42	1
43	8	45	0	47	2	14	14	43
27	8	18	47	0	1	14	46	46
24	24	34	2	1	0	20	40	21
9	8	18	14	14	20	0	13	46
46	25	42	14	46	40	13	0	50
6	16	1	43	46	21	46	50	0